
Gurobi 11.0.3 (win64) logging started Tue Dec 23 19:14:01 2025

Set parameter LogFile to value "D:\桌面不得不留的文件夹\李沛轩\1-研究生毕设\算例\随机算例\5-3-1(0).log"
Gurobi Optimizer version 11.0.3 build v11.0.3rc0 (win64 - Windows 10.0 (19045.2))

CPU model: Intel(R) Core(TM) i7-10875H CPU @ 2.30GHz, instruction set [SSE2|AVX|AVX2]
Thread count: 8 physical cores, 16 logical processors, using up to 16 threads

Optimize a model with 59 rows, 145 columns and 311 nonzeros
Model fingerprint: 0xa34199de
Variable types: 72 continuous, 73 integer (73 binary)
Coefficient statistics:
  Matrix range     [1e+00, 1e+03]
  Objective range  [1e+01, 2e+03]
  Bounds range     [1e+00, 1e+00]
  RHS range        [1e+00, 1e+03]
Presolve removed 11 rows and 81 columns
Presolve time: 0.00s
Presolved: 48 rows, 64 columns, 268 nonzeros
Variable types: 0 continuous, 64 integer (64 binary)
Found heuristic solution: objective 4500.0000000

Root relaxation: cutoff, 3 iterations, 0.00 seconds (0.00 work units)

    Nodes    |    Current Node    |     Objective Bounds      |     Work
 Expl Unexpl |  Obj  Depth IntInf | Incumbent    BestBd   Gap | It/Node Time

     0     0     cutoff    0      4500.00000 4500.00000  0.00%     -    0s

Explored 1 nodes (3 simplex iterations) in 0.01 seconds (0.00 work units)
Thread count was 16 (of 16 available processors)

Solution count 1: 4500 

Optimal solution found (tolerance 1.00e-04)
Best objective 4.500000000000e+03, best bound 4.500000000000e+03, gap 0.0000%
